p cnf 12 50 
7 -2 8 0
8 -6 -1 0
9 -12 -4 0
-9 -10 6 0
10 11 -6 0
4 -5 -11 0
6 -8 10 0
-10 4 1 0
-9 -5 8 0
8 -6 1 0
4 -10 -2 0
9 3 4 0
-1 -3 -9 0
11 12 6 0
11 5 -9 0
-12 -10 -8 0
-8 11 6 0
3 -2 -5 0
-10 4 2 0
-2 4 10 0
-8 -9 4 0
-2 -10 12 0
10 1 -5 0
-7 -3 -11 0
3 1 11 0
-2 8 -11 0
-5 -2 -11 0
12 2 11 0
11 -8 -10 0
12 5 -9 0
-5 6 -7 0
-4 -3 -11 0
-12 -11 -7 0
-9 -8 7 0
12 8 5 0
8 -9 -10 0
5 -2 -12 0
-11 -9 5 0
-6 -11 -12 0
-8 10 -2 0
-8 -10 1 0
-5 -8 6 0
9 -3 -8 0
-5 -2 11 0
5 -9 -3 0
-4 -8 12 0
-2 11 12 0
2 -10 -4 0
-8 -9 -7 0
5 -10 2 0
